Route #1: 5 86 67 44 121 79 76 54 144 87 42 152 124 63 103 99
Route #2: 3 130 143 71 113 60 132 154 139 27 108 102 110 101 36 105 80 18
Route #3: 23 142 11 141 70 133 24 31 40 50 19 100 135 150 98 45 81 164
Route #4: 4 160 75 95 59 112 53 72 32 28 10 51 39 120 82 65 34
Route #5: 55 38 151 131 149 21 158 146 84 37 2 29 16 109 115 125
Route #6: 30 92 15 159 17 96 153 116 148 97 156 85 14 52 48 140 46
Route #7: 134 119 68 162 62 128 123 35 26 118 73 25 93 9 157 6 7 137
Route #8: 89 22 69 83 56 58 155 127 47 126 106 166 33 74 41 138 78 165
Route #9: 61 94 90 161 91 49 64 107 13 88 114 163 145 129 147 20 117 43 66
Route #10: 8 136 111 122 1 77 57 12 104
Cost 24764
